p tw 24 36
1 2
1 9
1 10
2 12
2 3
11 12
11 19
13 14
13 20
14 15
14 20
16 17
16 21
17 18
17 21
19 22
20 23
3 12
3 4
21 24
22 23
22 24
23 24
4 13
4 5
5 15
5 6
6 15
6 7
7 16
7 8
8 18
8 9
9 18
10 11
10 19
